graph_generation/data/cp/rcsp/hexagonal_lattice_N_8_weights-random_windows-tight.dzn
N = 160;
M = 376;
Edge_Start = [1, 1, 2, 3, 3, 5, 6, 7, 8, 9, 9, 10, 11, 12, 13, 13, 14, 15, 16, 17, 18, 19, 19, 20, 21, 21, 22, 23, 23, 24, 25, 25, 27, 27, 28, 29, 29, 30, 31, 31, 32, 33, 33, 35, 36, 36, 37, 38, 39, 40, 41, 42, 42, 43, 44, 44, 46, 47, 49, 50, 50, 51, 52, 52, 55, 56, 57, 58, 59, 59, 60, 61, 62, 63, 63, 65, 65, 66, 67, 67, 68, 69, 69, 70, 71, 72, 72, 73, 74, 74, 75, 76, 76, 77, 78, 78, 79, 80, 80, 82, 82, 83, 84, 84, 85, 86, 87, 90, 91, 91, 93, 93, 94, 95, 96, 97, 97, 98, 99, 100, 101, 101, 102, 103, 103, 104, 105, 105, 107, 108, 108, 110, 111, 112, 112, 113, 114, 114, 115, 116, 118, 118, 119, 120, 120, 122, 122, 123, 124, 124, 126, 127, 128, 129, 130, 131, 131, 132, 133, 133, 134, 135, 135, 136, 137, 137, 138, 139, 139, 140, 141, 141, 142, 143, 144, 145, 146, 147, 148, 149, 150, 151, 152, 153, 154, 156, 158, 159, 2, 18, 3, 4, 20, 22, 7, 8, 9, 10, 26, 11, 12, 13, 14, 30, 15, 16, 17, 34, 19, 20, 37, 21, 22, 39, 23, 24, 41, 25, 26, 43, 28, 45, 29, 30, 47, 31, 32, 49, 33, 34, 51, 53, 37, 54, 38, 39, 40, 58, 42, 43, 60, 44, 45, 62, 64, 48, 50, 51, 68, 52, 53, 70, 56, 57, 75, 59, 60, 77, 61, 62, 63, 64, 81, 66, 83, 67, 68, 85, 69, 70, 87, 71, 89, 73, 90, 74, 75, 92, 76, 77, 94, 78, 79, 96, 80, 81, 98, 83, 100, 84, 85, 102, 86, 87, 88, 91, 92, 109, 94, 111, 95, 96, 97, 98, 115, 99, 100, 101, 102, 119, 103, 104, 121, 105, 106, 123, 125, 109, 126, 128, 112, 113, 130, 114, 115, 132, 116, 117, 119, 136, 120, 121, 138, 123, 140, 124, 125, 142, 127, 144, 129, 146, 131, 132, 148, 133, 134, 150, 135, 136, 152, 137, 138, 154, 139, 140, 156, 141, 142, 158, 143, 160, 145, 146, 147, 148, 149, 150, 151, 152, 153, 154, 155, 157, 159, 160];
Edge_End = [2, 18, 3, 4, 20, 22, 7, 8, 9, 10, 26, 11, 12, 13, 14, 30, 15, 16, 17, 34, 19, 20, 37, 21, 22, 39, 23, 24, 41, 25, 26, 43, 28, 45, 29, 30, 47, 31, 32, 49, 33, 34, 51, 53, 37, 54, 38, 39, 40, 58, 42, 43, 60, 44, 45, 62, 64, 48, 50, 51, 68, 52, 53, 70, 56, 57, 75, 59, 60, 77, 61, 62, 63, 64, 81, 66, 83, 67, 68, 85, 69, 70, 87, 71, 89, 73, 90, 74, 75, 92, 76, 77, 94, 78, 79, 96, 80, 81, 98, 83, 100, 84, 85, 102, 86, 87, 88, 91, 92, 109, 94, 111, 95, 96, 97, 98, 115, 99, 100, 101, 102, 119, 103, 104, 121, 105, 106, 123, 125, 109, 126, 128, 112, 113, 130, 114, 115, 132, 116, 117, 119, 136, 120, 121, 138, 123, 140, 124, 125, 142, 127, 144, 129, 146, 131, 132, 148, 133, 134, 150, 135, 136, 152, 137, 138, 154, 139, 140, 156, 141, 142, 158, 143, 160, 145, 146, 147, 148, 149, 150, 151, 152, 153, 154, 155, 157, 159, 160, 1, 1, 2, 3, 3, 5, 6, 7, 8, 9, 9, 10, 11, 12, 13, 13, 14, 15, 16, 17, 18, 19, 19, 20, 21, 21, 22, 23, 23, 24, 25, 25, 27, 27, 28, 29, 29, 30, 31, 31, 32, 33, 33, 35, 36, 36, 37, 38, 39, 40, 41, 42, 42, 43, 44, 44, 46, 47, 49, 50, 50, 51, 52, 52, 55, 56, 57, 58, 59, 59, 60, 61, 62, 63, 63, 65, 65, 66, 67, 67, 68, 69, 69, 70, 71, 72, 72, 73, 74, 74, 75, 76, 76, 77, 78, 78, 79, 80, 80, 82, 82, 83, 84, 84, 85, 86, 87, 90, 91, 91, 93, 93, 94, 95, 96, 97, 97, 98, 99, 100, 101, 101, 102, 103, 103, 104, 105, 105, 107, 108, 108, 110, 111, 112, 112, 113, 114, 114, 115, 116, 118, 118, 119, 120, 120, 122, 122, 123, 124, 124, 126, 127, 128, 129, 130, 131, 131, 132, 133, 133, 134, 135, 135, 136, 137, 137, 138, 139, 139, 140, 141, 141, 142, 143, 144, 145, 146, 147, 148, 149, 150, 151, 152, 153, 154, 156, 158, 159];
L = [10, 3, 2, 1, 15, 13, 14, 8, 10, 10, 8, 5, 12, 19, 14, 9, 9, 1, 16, 9, 13, 1, 16, 16, 1, 8, 3, 10, 5, 3, 16, 1, 12, 3, 5, 1, 3, 17, 17, 12, 12, 4, 6, 7, 14, 16, 15, 8, 1, 6, 17, 9, 7, 18, 5, 7, 5, 17, 2, 17, 10, 13, 5, 15, 3, 8, 1, 3, 3, 4, 12, 6, 8, 11, 10, 10, 15, 15, 11, 18, 12, 3, 3, 12, 18, 1, 15, 4, 6, 11, 9, 7, 13, 12, 16, 15, 11, 14, 7, 6, 13, 7, 4, 15, 8, 6, 19, 1, 8, 10, 18, 13, 8, 3, 9, 7, 17, 16, 1, 5, 15, 11, 12, 15, 18, 1, 16, 5, 19, 13, 17, 3, 11, 16, 1, 1, 7, 19, 12, 8, 16, 7, 4, 2, 18, 12, 17, 19, 14, 1, 12, 19, 15, 7, 16, 18, 15, 8, 11, 19, 15, 18, 8, 12, 5, 1, 4, 6, 13, 7, 16, 17, 3, 11, 8, 17, 2, 18, 10, 15, 7, 18, 5, 18, 17, 2, 6, 17, 10, 3, 2, 1, 15, 13, 14, 8, 10, 10, 8, 5, 12, 19, 14, 9, 9, 1, 16, 9, 13, 1, 16, 16, 1, 8, 3, 10, 5, 3, 16, 1, 12, 3, 5, 1, 3, 17, 17, 12, 12, 4, 6, 7, 14, 16, 15, 8, 1, 6, 17, 9, 7, 18, 5, 7, 5, 17, 2, 17, 10, 13, 5, 15, 3, 8, 1, 3, 3, 4, 12, 6, 8, 11, 10, 10, 15, 15, 11, 18, 12, 3, 3, 12, 18, 1, 15, 4, 6, 11, 9, 7, 13, 12, 16, 15, 11, 14, 7, 6, 13, 7, 4, 15, 8, 6, 19, 1, 8, 10, 18, 13, 8, 3, 9, 7, 17, 16, 1, 5, 15, 11, 12, 15, 18, 1, 16, 5, 19, 13, 17, 3, 11, 16, 1, 1, 7, 19, 12, 8, 16, 7, 4, 2, 18, 12, 17, 19, 14, 1, 12, 19, 15, 7, 16, 18, 15, 8, 11, 19, 15, 18, 8, 12, 5, 1, 4, 6, 13, 7, 16, 17, 3, 11, 8, 17, 2, 18, 10, 15, 7, 18, 5, 18, 17, 2, 6, 17];
T = [7, 8, 2, 1, 13, 16, 9, 6, 14, 11, 7, 5, 11, 20, 18, 10, 10, 1, 19, 12, 7, 1, 22, 7, 1, 9, 1, 4, 3, 1, 15, 4, 16, 3, 5, 1, 18, 18, 18, 19, 7, 1, 2, 10, 20, 19, 8, 9, 3, 11, 20, 1, 5, 16, 8, 5, 11, 11, 4, 17, 14, 17, 3, 12, 5, 5, 1, 1, 2, 9, 11, 6, 4, 9, 6, 5, 15, 21, 20, 21, 12, 1, 9, 22, 20, 12, 11, 1, 3, 15, 5, 2, 3, 13, 21, 12, 8, 9, 13, 4, 5, 1, 7, 25, 2, 9, 21, 9, 7, 15, 9, 12, 13, 1, 2, 2, 10, 21, 3, 9, 15, 12, 9, 14, 6, 12, 20, 7, 18, 6, 25, 7, 12, 26, 1, 3, 10, 14, 12, 12, 10, 9, 8, 2, 23, 11, 11, 14, 16, 1, 18, 22, 21, 8, 15, 17, 14, 5, 1, 21, 9, 23, 3, 6, 3, 1, 6, 1, 17, 9, 19, 21, 4, 4, 10, 16, 6, 23, 10, 18, 7, 18, 2, 21, 13, 1, 11, 13, 7, 8, 2, 1, 13, 16, 9, 6, 14, 11, 7, 5, 11, 20, 18, 10, 10, 1, 19, 12, 7, 1, 22, 7, 1, 9, 1, 4, 3, 1, 15, 4, 16, 3, 5, 1, 18, 18, 18, 19, 7, 1, 2, 10, 20, 19, 8, 9, 3, 11, 20, 1, 5, 16, 8, 5, 11, 11, 4, 17, 14, 17, 3, 12, 5, 5, 1, 1, 2, 9, 11, 6, 4, 9, 6, 5, 15, 21, 20, 21, 12, 1, 9, 22, 20, 12, 11, 1, 3, 15, 5, 2, 3, 13, 21, 12, 8, 9, 13, 4, 5, 1, 7, 25, 2, 9, 21, 9, 7, 15, 9, 12, 13, 1, 2, 2, 10, 21, 3, 9, 15, 12, 9, 14, 6, 12, 20, 7, 18, 6, 25, 7, 12, 26, 1, 3, 10, 14, 12, 12, 10, 9, 8, 2, 23, 11, 11, 14, 16, 1, 18, 22, 21, 8, 15, 17, 14, 5, 1, 21, 9, 23, 3, 6, 3, 1, 6, 1, 17, 9, 19, 21, 4, 4, 10, 16, 6, 23, 10, 18, 7, 18, 2, 21, 13, 1, 11, 13];
Lower_Bound = [0, 7, 9, 10, 40, 81, 72, 66, 52, 63, 68, 79, 93, 111, 121, 122, 139, 8, 15, 16, 23, 24, 25, 29, 30, 45, 61, 77, 82, 83, 101, 119, 126, 127, 158, 57, 37, 41, 32, 35, 28, 35, 34, 50, 58, 79, 100, 111, 120, 124, 128, 145, 148, 76, 69, 64, 59, 43, 42, 40, 51, 55, 59, 68, 122, 127, 136, 138, 135, 136, 158, 74, 62, 61, 58, 53, 51, 64, 82, 74, 65, 103, 107, 108, 115, 117, 126, 147, 178, 85, 83, 76, 65, 56, 69, 70, 72, 74, 95, 98, 107, 122, 131, 145, 157, 177, 212, 104, 98, 184, 77, 89, 95, 92, 82, 94, 106, 129, 119, 127, 129, 165, 164, 178, 194, 129, 147, 177, 156, 90, 105, 106, 111, 112, 121, 138, 144, 147, 153, 154, 163, 179, 183, 169, 164, 148, 142, 119, 129, 132, 139, 124, 126, 145, 158, 170, 171, 184, 195, 187];
Upper_Bound = [0, 7, 9, 10, 40, 81, 72, 66, 52, 63, 68, 79, 93, 111, 121, 122, 139, 8, 15, 16, 23, 24, 25, 29, 30, 45, 61, 77, 82, 83, 101, 119, 126, 127, 158, 57, 37, 41, 32, 35, 28, 35, 34, 50, 58, 79, 100, 111, 120, 124, 128, 145, 148, 76, 69, 64, 59, 43, 42, 40, 51, 55, 59, 68, 122, 127, 136, 138, 135, 136, 158, 74, 62, 61, 58, 53, 51, 64, 82, 74, 65, 103, 107, 108, 115, 117, 126, 147, 178, 85, 83, 76, 65, 56, 69, 70, 72, 74, 95, 98, 107, 122, 131, 145, 157, 177, 212, 104, 98, 184, 77, 89, 95, 92, 82, 94, 106, 129, 119, 127, 129, 165, 164, 178, 194, 129, 147, 177, 156, 90, 105, 106, 111, 112, 121, 138, 144, 147, 153, 154, 163, 179, 183, 169, 164, 148, 142, 119, 129, 132, 139, 124, 126, 145, 158, 170, 171, 184, 195, 187];
Start = 1;
End = 160;
Time = 187;
