graph_generation/data/sat/rcsp/hexagonal_lattice_N_8_weights-random_windows-tight.txt
N = 160;
M = 376;
Edge_Start = [1, 1, 2, 2, 3, 3, 3, 4, 5, 6, 7, 7, 8, 8, 9, 9, 9, 10, 10, 11, 11, 12, 12, 13, 13, 13, 14, 14, 15, 15, 16, 16, 17, 17, 18, 18, 19, 19, 19, 20, 20, 20, 21, 21, 21, 22, 22, 22, 23, 23, 23, 24, 24, 25, 25, 25, 26, 26, 27, 27, 28, 28, 29, 29, 29, 30, 30, 30, 31, 31, 31, 32, 32, 33, 33, 33, 34, 34, 35, 36, 36, 37, 37, 37, 38, 38, 39, 39, 39, 40, 40, 41, 41, 42, 42, 42, 43, 43, 43, 44, 44, 44, 45, 45, 46, 47, 47, 48, 49, 49, 50, 50, 50, 51, 51, 51, 52, 52, 52, 53, 53, 54, 55, 56, 56, 57, 57, 58, 58, 59, 59, 59, 60, 60, 60, 61, 61, 62, 62, 62, 63, 63, 63, 64, 64, 65, 65, 66, 66, 67, 67, 67, 68, 68, 68, 69, 69, 69, 70, 70, 70, 71, 71, 72, 72, 73, 73, 74, 74, 74, 75, 75, 75, 76, 76, 76, 77, 77, 77, 78, 78, 78, 79, 79, 80, 80, 80, 81, 81, 82, 82, 83, 83, 83, 84, 84, 84, 85, 85, 85, 86, 86, 87, 87, 87, 88, 89, 90, 90, 91, 91, 91, 92, 92, 93, 93, 94, 94, 94, 95, 95, 96, 96, 96, 97, 97, 97, 98, 98, 98, 99, 99, 100, 100, 100, 101, 101, 101, 102, 102, 102, 103, 103, 103, 104, 104, 105, 105, 105, 106, 107, 108, 108, 109, 109, 110, 111, 111, 112, 112, 112, 113, 113, 114, 114, 114, 115, 115, 115, 116, 116, 117, 118, 118, 119, 119, 119, 120, 120, 120, 121, 121, 122, 122, 123, 123, 123, 124, 124, 124, 125, 125, 126, 126, 127, 127, 128, 128, 129, 129, 130, 130, 131, 131, 131, 132, 132, 132, 133, 133, 133, 134, 134, 135, 135, 135, 136, 136, 136, 137, 137, 137, 138, 138, 138, 139, 139, 139, 140, 140, 140, 141, 141, 141, 142, 142, 142, 143, 143, 144, 144, 145, 145, 146, 146, 146, 147, 147, 148, 148, 148, 149, 149, 150, 150, 150, 151, 151, 152, 152, 152, 153, 153, 154, 154, 154, 155, 156, 156, 157, 158, 158, 159, 159, 160, 160];
Edge_End = [2, 18, 1, 3, 2, 4, 20, 3, 22, 7, 6, 8, 7, 9, 8, 10, 26, 9, 11, 10, 12, 11, 13, 12, 14, 30, 13, 15, 14, 16, 15, 17, 16, 34, 1, 19, 18, 20, 37, 3, 19, 21, 20, 22, 39, 5, 21, 23, 22, 24, 41, 23, 25, 24, 26, 43, 9, 25, 28, 45, 27, 29, 28, 30, 47, 13, 29, 31, 30, 32, 49, 31, 33, 32, 34, 51, 17, 33, 53, 37, 54, 19, 36, 38, 37, 39, 21, 38, 40, 39, 58, 23, 42, 41, 43, 60, 25, 42, 44, 43, 45, 62, 27, 44, 64, 29, 48, 47, 31, 50, 49, 51, 68, 33, 50, 52, 51, 53, 70, 35, 52, 36, 56, 55, 57, 56, 75, 40, 59, 58, 60, 77, 42, 59, 61, 60, 62, 44, 61, 63, 62, 64, 81, 46, 63, 66, 83, 65, 67, 66, 68, 85, 50, 67, 69, 68, 70, 87, 52, 69, 71, 70, 89, 73, 90, 72, 74, 73, 75, 92, 57, 74, 76, 75, 77, 94, 59, 76, 78, 77, 79, 96, 78, 80, 79, 81, 98, 63, 80, 83, 100, 65, 82, 84, 83, 85, 102, 67, 84, 86, 85, 87, 69, 86, 88, 87, 71, 72, 91, 90, 92, 109, 74, 91, 94, 111, 76, 93, 95, 94, 96, 78, 95, 97, 96, 98, 115, 80, 97, 99, 98, 100, 82, 99, 101, 100, 102, 119, 84, 101, 103, 102, 104, 121, 103, 105, 104, 106, 123, 105, 125, 109, 126, 91, 108, 128, 93, 112, 111, 113, 130, 112, 114, 113, 115, 132, 97, 114, 116, 115, 117, 116, 119, 136, 101, 118, 120, 119, 121, 138, 103, 120, 123, 140, 105, 122, 124, 123, 125, 142, 107, 124, 108, 127, 126, 144, 110, 129, 128, 146, 112, 131, 130, 132, 148, 114, 131, 133, 132, 134, 150, 133, 135, 134, 136, 152, 118, 135, 137, 136, 138, 154, 120, 137, 139, 138, 140, 156, 122, 139, 141, 140, 142, 158, 124, 141, 143, 142, 160, 127, 145, 144, 146, 129, 145, 147, 146, 148, 131, 147, 149, 148, 150, 133, 149, 151, 150, 152, 135, 151, 153, 152, 154, 137, 153, 155, 154, 139, 157, 156, 141, 159, 158, 160, 143, 159];
L = [10, 3, 10, 2, 2, 1, 15, 1, 13, 14, 14, 8, 8, 10, 10, 10, 8, 10, 5, 5, 12, 12, 19, 19, 14, 9, 14, 9, 9, 1, 1, 16, 16, 9, 3, 13, 13, 1, 16, 15, 1, 16, 16, 1, 8, 13, 1, 3, 3, 10, 5, 10, 3, 3, 16, 1, 8, 16, 12, 3, 12, 5, 5, 1, 3, 9, 1, 17, 17, 17, 12, 17, 12, 12, 4, 6, 9, 4, 7, 14, 16, 16, 14, 15, 15, 8, 8, 8, 1, 1, 6, 5, 17, 17, 9, 7, 1, 9, 18, 18, 5, 7, 3, 5, 5, 3, 17, 17, 12, 2, 2, 17, 10, 6, 17, 13, 13, 5, 15, 7, 5, 16, 3, 3, 8, 8, 1, 6, 3, 3, 3, 4, 7, 3, 12, 12, 6, 7, 6, 8, 8, 11, 10, 5, 11, 10, 15, 10, 15, 15, 11, 18, 10, 11, 12, 12, 3, 3, 15, 3, 12, 12, 18, 1, 15, 1, 4, 4, 6, 11, 1, 6, 9, 9, 7, 13, 4, 7, 12, 12, 16, 15, 16, 11, 11, 14, 7, 10, 14, 6, 13, 15, 6, 7, 7, 4, 15, 18, 4, 8, 8, 6, 3, 6, 19, 19, 18, 15, 1, 1, 8, 10, 11, 8, 18, 13, 13, 18, 8, 8, 3, 15, 3, 9, 9, 7, 17, 7, 7, 16, 16, 1, 13, 1, 5, 5, 15, 11, 15, 15, 12, 12, 15, 18, 15, 1, 1, 16, 5, 16, 19, 13, 17, 10, 13, 3, 13, 11, 11, 16, 1, 16, 1, 1, 7, 19, 17, 7, 12, 12, 8, 8, 16, 7, 11, 16, 4, 4, 2, 18, 18, 2, 12, 17, 5, 12, 19, 19, 14, 1, 19, 14, 17, 12, 12, 19, 3, 15, 15, 7, 1, 16, 16, 18, 15, 19, 18, 8, 8, 11, 19, 11, 15, 15, 18, 8, 7, 18, 12, 12, 5, 1, 18, 5, 4, 4, 6, 13, 17, 6, 7, 7, 16, 17, 1, 16, 3, 3, 11, 19, 8, 8, 17, 7, 17, 2, 2, 18, 15, 18, 10, 10, 15, 19, 15, 7, 7, 18, 8, 18, 5, 5, 18, 1, 18, 17, 17, 13, 2, 2, 17, 6, 6, 17, 11, 17];
T = [11, 3, 11, 1, 1, 1, 16, 1, 10, 12, 12, 1, 1, 7, 7, 15, 4, 15, 2, 2, 15, 15, 31, 31, 14, 13, 14, 8, 8, 1, 1, 13, 13, 5, 3, 16, 16, 9, 20, 16, 9, 11, 11, 1, 17, 10, 1, 2, 2, 5, 13, 5, 4, 4, 15, 1, 4, 15, 10, 1, 10, 8, 8, 1, 2, 13, 1, 22, 22, 18, 12, 18, 13, 13, 1, 20, 5, 1, 1, 1, 10, 20, 1, 9, 9, 3, 17, 3, 3, 3, 19, 13, 8, 8, 13, 4, 1, 13, 22, 22, 2, 10, 1, 2, 1, 2, 19, 19, 12, 1, 1, 20, 17, 20, 20, 15, 15, 12, 9, 1, 12, 10, 4, 4, 13, 13, 4, 19, 1, 1, 5, 1, 4, 5, 10, 10, 11, 10, 11, 24, 24, 8, 7, 1, 8, 14, 19, 14, 10, 10, 6, 13, 17, 6, 17, 17, 7, 2, 9, 7, 17, 17, 22, 1, 16, 1, 2, 2, 9, 10, 4, 9, 10, 10, 14, 15, 1, 14, 9, 9, 21, 9, 21, 1, 1, 9, 4, 7, 9, 2, 22, 19, 2, 10, 10, 2, 11, 13, 2, 2, 2, 6, 2, 6, 30, 30, 22, 16, 6, 6, 5, 15, 10, 5, 21, 8, 15, 21, 11, 11, 1, 9, 1, 11, 11, 1, 1, 4, 1, 13, 13, 1, 22, 1, 9, 9, 20, 4, 11, 20, 9, 9, 20, 19, 20, 6, 6, 18, 10, 18, 21, 18, 18, 15, 18, 3, 8, 6, 6, 9, 7, 9, 11, 11, 5, 16, 1, 5, 10, 10, 10, 10, 17, 5, 4, 17, 9, 9, 10, 22, 19, 10, 8, 11, 10, 8, 18, 18, 15, 1, 21, 15, 18, 10, 10, 24, 3, 26, 26, 7, 7, 19, 19, 22, 12, 16, 22, 13, 13, 8, 16, 8, 25, 25, 14, 1, 5, 14, 11, 11, 1, 1, 22, 1, 5, 5, 1, 9, 11, 1, 11, 11, 14, 26, 1, 14, 5, 5, 11, 24, 6, 6, 15, 7, 15, 3, 3, 18, 12, 18, 2, 2, 9, 16, 9, 8, 8, 13, 1, 13, 16, 16, 23, 1, 23, 17, 17, 9, 1, 1, 26, 11, 11, 11, 11, 11];
Lower_Bound = [0, 11, 12, 13, 50, 90, 78, 77, 70, 85, 87, 102, 109, 123, 131, 132, 145, 3, 19, 28, 39, 40, 42, 47, 51, 66, 77, 87, 95, 96, 118, 136, 149, 150, 179, 40, 39, 48, 51, 54, 55, 63, 52, 74, 76, 117, 97, 116, 130, 131, 151, 166, 178, 50, 118, 114, 101, 73, 72, 67, 77, 84, 108, 116, 160, 164, 154, 148, 163, 170, 187, 109, 108, 106, 97, 87, 73, 82, 103, 104, 113, 139, 141, 151, 153, 155, 161, 191, 209, 125, 121, 116, 123, 102, 92, 91, 102, 103, 116, 117, 126, 146, 155, 175, 181, 199, 229, 154, 136, 215, 131, 128, 119, 108, 103, 113, 123, 147, 130, 139, 149, 178, 186, 193, 208, 172, 182, 212, 186, 135, 146, 124, 137, 145, 166, 152, 162, 161, 166, 167, 178, 192, 197, 200, 194, 179, 176, 158, 160, 153, 161, 167, 183, 163, 180, 175, 176, 204, 215, 208];
Upper_Bound = [0, 11, 12, 13, 50, 90, 78, 77, 70, 85, 87, 102, 109, 123, 131, 132, 145, 3, 19, 28, 39, 40, 42, 47, 51, 66, 77, 87, 95, 96, 118, 136, 149, 150, 179, 40, 39, 48, 51, 54, 55, 63, 52, 74, 76, 117, 97, 116, 130, 131, 151, 166, 178, 50, 118, 114, 101, 73, 72, 67, 77, 84, 108, 116, 160, 164, 154, 148, 163, 170, 187, 109, 108, 106, 97, 87, 73, 82, 103, 104, 113, 139, 141, 151, 153, 155, 161, 191, 209, 125, 121, 116, 123, 102, 92, 91, 102, 103, 116, 117, 126, 146, 155, 175, 181, 199, 229, 154, 136, 215, 131, 128, 119, 108, 103, 113, 123, 147, 130, 139, 149, 178, 186, 193, 208, 172, 182, 212, 186, 135, 146, 124, 137, 145, 166, 152, 162, 161, 166, 167, 178, 192, 197, 200, 194, 179, 176, 158, 160, 153, 161, 167, 183, 163, 180, 175, 176, 204, 215, 208];
Start = 1;
End = 160;
Time = 208;
